size_x = 10;
size_y = 10;

given = [|
1, 2, 2|
1, 4, 5|
1, 10, 3|
2, 5, 9|
2, 7, 6|
2, 10, 3|
3, 1, 16|
4, 6, 3|
4, 8, 2|
5, 3, 2|
5, 5, 2|
5, 8, 2|
5, 9, 2|
5, 10, 4|
7, 6, 3|
7, 7, 9|
8, 4, 10|
9, 3, 5|
10, 1, 2|
10, 7, 10|];
